results-backup/results-heuristic/PlasticInjection_modified.fjs
2 0
1 40
4 0
5 3378
5 0
7 181
7 0
8 179
10 0
11 100
13 1348
1 842
12 0
13 3375
10 83
10 707
1 1116
1 1307
16 0
19 0
20 0
6 0
6 2697
10 223
21 0
20 3372
20 227
22 302
22 3370
14 0
17 2696
3 2703
23 0
23 303
3 0
17 0
25 40
17 908
29 0
1 3381
30 1348
6 113
21 1469
24 2666
26 0
27 0
1 338
22 0
22 713
11 0
3 295
24 0
16 353
15 285
9 0
5 455
25 0
17 700
28 0
5 1348
33 0
8 2027
1 0
2 1350
15 0
21 520
18 0
8 0
5 1066
